8
8
43
43
48
80
96
100
103
103
110
111
112
114
127
128
138
138
141
143
144
149
155
156
160
147
164
164
166
173
174
175
135
176
173
169
182
187
189
191
191
195
196
198
198
198
199
201
202
203
205
207
207
208
208
211
211
212
213
214
215
216
217
217
181
218
219
220
220
222
223
223
225
226
226
229
243
246
247
250
262
278
287
296
299
300
301
304
304
304
307
308
308
308
310
315
281
317
317
318
319
324
325
325
329
329
331
332
333
330
335
336
340
343
281
343
341
347
346
346
348
350
351
352
352
352
353
354
354
327
356
356
357
358
357
360
365
331
366
369
369
370
370
371
368
319
371
369
372
373
373
347
375
375
376
376
376
377
377
380
380
381
381
382
349
382
383
383
384
385
386
387
387
388
388
388
390
392
393
394
396
397
400
402
403
406
406
406
408
408
411
599
749
